138
0 107 61 97 50 66 94 104 67 95 
17 37 72 78 45 98 65 84 68 89 
28 19 128 56 108 16 129 48 22 126 
32 46 59 116 134 96 92 88 43 40 
23 34 85 127 21 131 133 1 115 71 
106 10 69 130 60 121 136 63 55 125 
86 15 38 93 33 36 90 18 123 87 
54 20 103 11 13 117 31 75 12 62 
122 51 7 137 118 101 3 82 5 57 
120 74 64 44 109 53 111 77 105 49 
29 2 6 110 102 52 41 113 132 112 
4 100 124 79 81 58 24 8 76 27 
42 91 83 114 47 9 39 80 99 25 
35 14 135 26 70 73 30 119 
